583069
104,105,25,22,56,13,36,3,84,45,73,67,101,106,16,90,14,44,15,91,74,42,30,87,12,4,65,46,31,98,79,82,86,7,95,18,85,77,11,6,75,50,1,61,17,60,89,58,62,99,35,72,20,57,32,47,29,55,2,52,21,64,53,70,19,39,103,68,43,78,96,81,26,102,83,76,24,94,33,71,9,93,38,48,63,40,34,28,88,69,100,54,92,10,59,66,97,23,80,8,5,27,41,51,49,37